# Objective value = 1.9461975908844609e+03
x[0] 1
x[1] 1
x[2] 0
x[3] 1
x[4] 1
x[5] 0
x[6] 1
x[7] 1
x[8] 1
x[9] 0
x[10] 0
x[11] 1
x[12] 0
x[13] 1
x[14] 0
x[15] 1
x[16] 0
x[17] 1
x[18] 0
x[19] 1
x[20] 1
x[21] 1
x[22] 1
x[23] 1
x[24] 1
x[25] 0
x[26] 1
x[27] 0
x[28] 1
x[29] 1
x[30] 0
x[31] 0
x[32] 1
x[33] 0
x[34] 1
x[35] 0
x[36] 1
x[37] 1
x[38] 1
x[39] 1
x[40] 1
x[41] 1
x[42] 1
x[43] 0
x[44] 1
x[45] 0
x[46] 1
x[47] 0
x[48] 0
x[49] 1
x[50] 0
x[51] 1
x[52] 0
x[53] 0
x[54] 1
x[55] 0
x[56] 1
x[57] 1
x[58] 1
x[59] 0
x[60] 1
x[61] 0
x[62] 1
x[63] 0
x[64] 1
x[65] 0
x[66] 0
x[67] 0
x[68] 1
x[69] 0
x[70] 0
x[71] 1
x[72] 0
x[73] 0
x[74] 0
x[75] 1
x[76] 0
x[77] 1
x[78] 1
x[79] 0
x[80] 1
x[81] 1
x[82] 1
x[83] 1
x[84] 0
x[85] 1
x[86] 1
x[87] 1
x[88] 1
x[89] 1
x[90] 1
x[91] 1
x[92] 1
x[93] 1
x[94] 0
x[95] 1
x[96] 0
x[97] 1
x[98] 1
x[99] 0
x[100] 1
x[101] 1
x[102] 1
x[103] 1
x[104] 1
x[105] 1
x[106] 1
x[107] 0
x[108] 0
x[109] 0
x[110] 0
x[111] 0
x[112] 1
x[113] 0
x[114] 0
x[115] 0
x[116] 0
x[117] 0
x[118] 0
x[119] 0
x[120] 1
x[121] 1
x[122] 1
x[123] 0
x[124] 1
x[125] 1
x[126] 0
x[127] 0
x[128] 1
x[129] 0
x[130] 1
x[131] 1
x[132] 0
x[133] 1
x[134] 1
x[135] 0
x[136] 0
x[137] 0
x[138] 1
x[139] 1
x[140] 1
x[141] 0
x[142] 1
x[143] 1
x[144] 0
x[145] 1
x[146] 0
x[147] 1
x[148] 1
x[149] 0
x[150] 1
x[151] 1
x[152] 1
x[153] 0
x[154] 1
x[155] 1
x[156] 0
x[157] 1
x[158] 1
x[159] 1
x[160] 1
x[161] 0
x[162] 1
x[163] 1
x[164] 1
x[165] 0
x[166] 1
x[167] 0
x[168] 0
x[169] 1
x[170] 0
x[171] 1
x[172] 0
x[173] 0
x[174] 0
x[175] 1
x[176] 1
x[177] 1
x[178] 1
x[179] 0
x[180] 1
x[181] 1
x[182] 1
x[183] 1
x[184] 0
x[185] 0
x[186] 1
x[187] 1
x[188] 1
x[189] 1
x[190] 1
x[191] 0
x[192] 1
x[193] 0
x[194] 0
x[195] 1
x[196] 0
x[197] 1
x[198] 1
x[199] 0
x[200] 1
x[201] 1
x[202] 1
x[203] 1
x[204] 1
x[205] 0
x[206] 1
x[207] 1
x[208] 1
x[209] 0
x[210] 0
x[211] 1
x[212] 0
x[213] 1
x[214] 0
x[215] 0
x[216] 1
x[217] 0
x[218] 1
x[219] 0
x[220] 1
x[221] 0
x[222] 1
x[223] 0
x[224] 1
x[225] 1
x[226] 0
x[227] 0
x[228] 1
x[229] 0
x[230] 1
x[231] 0
x[232] 0
x[233] 0
x[234] 0
x[235] 0
x[236] 1
x[237] 1
x[238] 0
x[239] 1
x[240] 0
x[241] 0
x[242] 1
x[243] 0
x[244] 1
x[245] 1
x[246] 0
x[247] 1
x[248] 0
x[249] 0
x[250] 1
x[251] 1
x[252] 1
x[253] 1
x[254] 1
x[255] 1
x[256] 0
x[257] 1
x[258] 1
x[259] 1
x[260] 0
x[261] 1
x[262] 1
x[263] 0
x[264] 0
x[265] 1
x[266] 0
x[267] 1
x[268] 1
x[269] 1
x[270] 0
x[271] 1
x[272] 0
x[273] 0
x[274] 1
x[275] 1
x[276] 0
x[277] 1
x[278] 1
x[279] 1
x[280] 1
x[281] 1
x[282] 1
x[283] 0
x[284] 1
x[285] 0
x[286] 0
x[287] 1
x[288] 0
x[289] 0
x[290] 0
x[291] 1
x[292] 1
x[293] 1
x[294] 0
x[295] 1
x[296] 1
x[297] 0
x[298] 1
x[299] 0
x[300] 0
x[301] 0
x[302] 1
x[303] 0
x[304] 1
x[305] 0
x[306] 1
x[307] 1
x[308] 1
x[309] 0
x[310] 1
x[311] 0
x[312] 0
x[313] 0
x[314] 1
x[315] 1
x[316] 1
x[317] 1
x[318] 1
x[319] 0
x[320] 0
x[321] 0
x[322] 0
x[323] 0
x[324] 1
x[325] 0
x[326] 0
x[327] 0
x[328] 1
x[329] 0
x[330] 1
x[331] 0
x[332] 0
x[333] 1
x[334] 0
x[335] 1
x[336] 1
x[337] 1
x[338] 0
x[339] 1
x[340] 0
x[341] 0
x[342] 0
x[343] 1
x[344] 0
x[345] 1
x[346] 0
x[347] 1
x[348] 1
x[349] 1
x[350] 0
x[351] 0
x[352] 1
x[353] 1
x[354] 0
x[355] 1
x[356] 1
x[357] 1
x[358] 0
x[359] 0
x[360] 1
x[361] 1
x[362] 1
x[363] 0
x[364] 1
x[365] 1
x[366] 0
x[367] 0
x[368] 1
x[369] 1
x[370] 1
x[371] 1
x[372] 0
x[373] 1
x[374] 0
x[375] 1
x[376] 1
x[377] 0
x[378] 0
x[379] 1
x[380] 0
x[381] 1
x[382] 1
x[383] 1
x[384] 0
x[385] 1
x[386] 1
x[387] 0
x[388] 0
x[389] 0
x[390] 1
x[391] 1
x[392] 1
x[393] 1
x[394] 0
x[395] 1
x[396] 0
x[397] 1
x[398] 1
x[399] 1
x[400] 1
x[401] 1
x[402] 1
x[403] 0
x[404] 0
x[405] 0
x[406] 0
x[407] 1
x[408] 1
x[409] 1
x[410] 0
x[411] 0
x[412] 0
x[413] 0
x[414] 1
x[415] 1
x[416] 0
x[417] 0
x[418] 1
x[419] 0
x[420] 0
x[421] 0
x[422] 0
x[423] 1
x[424] 1
x[425] 0
x[426] 1
x[427] 1
x[428] 0
x[429] 1
x[430] 0
x[431] 0
x[432] 1
x[433] 1
x[434] 1
x[435] 0
x[436] 0
x[437] 1
x[438] 0
x[439] 1
x[440] 0
x[441] 1
x[442] 1
x[443] 1
x[444] 1
x[445] 1
x[446] 0
x[447] 0
x[448] 0
x[449] 0
x[450] 1
x[451] 0
x[452] 0
x[453] 1
x[454] 1
x[455] 1
x[456] 1
x[457] 1
x[458] 1
x[459] 1
x[460] 0
x[461] 0
x[462] 1
x[463] 0
x[464] 0
x[465] 0
x[466] 1
x[467] 1
x[468] 1
x[469] 0
x[470] 1
x[471] 0
x[472] 1
x[473] 0
x[474] 1
x[475] 1
x[476] 0
x[477] 1
x[478] 0
x[479] 0
x[480] 0
x[481] 1
x[482] 0
x[483] 0
x[484] 0
x[485] 0
x[486] 0
x[487] 1
x[488] 0
x[489] 0
x[490] 0
x[491] 0
x[492] 0
x[493] 0
x[494] 1
x[495] 1
x[496] 1
x[497] 0
x[498] 1
x[499] 0
x[500] 1
x[501] 0
x[502] 1
x[503] 1
x[504] 1
x[505] 1
x[506] 0
x[507] 1
x[508] 0
x[509] 0
x[510] 0
x[511] 1
x[512] 0
x[513] 1
x[514] 1
x[515] 0
x[516] 1
x[517] 0
x[518] 0
x[519] 0
x[520] 1
x[521] 0
x[522] 1
x[523] 1
x[524] 1
x[525] 0
x[526] 1
x[527] 0
x[528] 1
x[529] 1
x[530] 1
x[531] 1
x[532] 1
x[533] 0
x[534] 1
x[535] 0
x[536] 1
x[537] 1
x[538] 1
x[539] 1
x[540] 1
x[541] 0
x[542] 0
x[543] 0
x[544] 1
x[545] 0
x[546] 1
x[547] 0
x[548] 1
x[549] 1
x[550] 1
x[551] 0
x[552] 0
x[553] 0
x[554] 1
x[555] 1
x[556] 1
x[557] 1
x[558] 1
x[559] 1
x[560] 0
x[561] 1
x[562] 1
x[563] 1
x[564] 0
x[565] 1
x[566] 1
x[567] 1
x[568] 0
x[569] 0
x[570] 0
x[571] 1
x[572] 1
x[573] 0
x[574] 1
x[575] 1
x[576] 0
x[577] 1
x[578] 0
x[579] 0
x[580] 0
x[581] 1
x[582] 0
x[583] 1
x[584] 1
x[585] 1
x[586] 1
x[587] 1
x[588] 1
x[589] 0
x[590] 1
x[591] 1
x[592] 1
x[593] 0
x[594] 1
x[595] 1
x[596] 1
x[597] 0
x[598] 1
x[599] 1
x[600] 1
x[601] 1
x[602] 0
x[603] 1
x[604] 1
x[605] 1
x[606] 1
x[607] 1
x[608] 1
x[609] 1
x[610] 1
x[611] 0
x[612] 1
x[613] 1
x[614] 1
x[615] 0
x[616] 1
x[617] 0
x[618] 0
x[619] 0
x[620] 1
x[621] 1
x[622] 0
x[623] 0
x[624] 0
x[625] 0
x[626] 1
x[627] 0
x[628] 0
x[629] 0
x[630] 1
x[631] 1
x[632] 1
x[633] 0
x[634] 0
x[635] 0
x[636] 0
x[637] 1
x[638] 0
x[639] 1
x[640] 0
x[641] 0
x[642] 0
x[643] 0
x[644] 0
x[645] 0
x[646] 1
x[647] 0
x[648] 1
x[649] 0
x[650] 1
x[651] 1
x[652] 1
x[653] 1
x[654] 1
x[655] 1
x[656] 0
x[657] 0
x[658] 1
x[659] 1
x[660] 0
x[661] 0
x[662] 1
x[663] 0
x[664] 0
x[665] 0
x[666] 0
x[667] 0
x[668] 0
x[669] 0
x[670] 0
x[671] 0
x[672] 0
x[673] 0
x[674] 0
x[675] 1
x[676] 0
x[677] 0
x[678] 0
x[679] 1
x[680] 0
x[681] 1
x[682] 1
x[683] 1
x[684] 0
x[685] 0
x[686] 1
x[687] 0
x[688] 0
x[689] 1
x[690] 0
x[691] 0
x[692] 0
x[693] 0
x[694] 1
x[695] 0
x[696] 1
x[697] 1
x[698] 1
x[699] 0
x[700] 1
x[701] 0
x[702] 0
x[703] 1
x[704] 0
x[705] 1
x[706] 1
x[707] 0
x[708] 0
x[709] 0
x[710] 0
x[711] 1
x[712] 1
x[713] 1
x[714] 1
x[715] 1
x[716] 0
x[717] 0
x[718] 1
x[719] 0
x[720] 0
x[721] 1
x[722] 0
x[723] 1
x[724] 1
x[725] 1
x[726] 1
x[727] 0
x[728] 1
x[729] 1
x[730] 0
x[731] 1
x[732] 0
x[733] 1
x[734] 1
x[735] 1
x[736] 0
x[737] 1
x[738] 1
x[739] 1
x[740] 1
x[741] 1
x[742] 0
x[743] 1
x[744] 1
x[745] 1
x[746] 1
x[747] 1
x[748] 0
x[749] 0
x[750] 1
x[751] 0
x[752] 0
x[753] 0
x[754] 1
x[755] 0
x[756] 1
x[757] 1
x[758] 1
x[759] 1
x[760] 1
x[761] 1
x[762] 0
x[763] 1
x[764] 1
x[765] 1
x[766] 0
x[767] 1
x[768] 1
x[769] 0
x[770] 1
x[771] 1
x[772] 1
x[773] 1
x[774] 0
x[775] 1
x[776] 1
x[777] 0
x[778] 0
x[779] 0
x[780] 0
x[781] 0
x[782] 1
x[783] 1
x[784] 0
x[785] 1
x[786] 0
x[787] 1
x[788] 1
x[789] 0
x[790] 1
x[791] 1
x[792] 1
x[793] 1
x[794] 0
x[795] 1
x[796] 1
x[797] 0
x[798] 0
x[799] 0
x[800] 0
x[801] 1
x[802] 1
x[803] 0
x[804] 1
x[805] 1
x[806] 1
x[807] 1
x[808] 1
x[809] 1
x[810] 0
x[811] 1
x[812] 1
x[813] 1
x[814] 0
x[815] 1
x[816] 0
x[817] 0
x[818] 0
x[819] 1
x[820] 1
x[821] 0
x[822] 1
x[823] 0
x[824] 1
x[825] 1
x[826] 1
x[827] 0
x[828] 0
x[829] 0
x[830] 0
x[831] 1
x[832] 0
x[833] 1
x[834] 0
x[835] 0
x[836] 1
x[837] 0
x[838] 1
x[839] 1
x[840] 1
x[841] 1
x[842] 0
x[843] 1
x[844] 1
x[845] 0
x[846] 1
x[847] 1
x[848] 1
x[849] 1
x[850] 0
x[851] 0
x[852] 0
x[853] 1
x[854] 0
x[855] 0
x[856] 0
x[857] 0
x[858] 1
x[859] 0
x[860] 0
x[861] 1
x[862] 0
x[863] 1
x[864] 1
x[865] 0
x[866] 1
x[867] 0
x[868] 1
x[869] 1
x[870] 0
x[871] 0
x[872] 1
x[873] 1
x[874] 0
x[875] 0
x[876] 0
x[877] 0
x[878] 1
x[879] 0
x[880] 1
x[881] 0
x[882] 1
x[883] 1
x[884] 1
x[885] 1
x[886] 0
x[887] 1
x[888] 1
x[889] 1
x[890] 0
x[891] 0
x[892] 1
x[893] 1
x[894] 1
x[895] 1
x[896] 1
x[897] 1
x[898] 1
x[899] 0
x[900] 1
x[901] 1
x[902] 1
x[903] 1
x[904] 0
x[905] 1
x[906] 0
x[907] 1
x[908] 1
x[909] 1
x[910] 1
x[911] 0
x[912] 1
x[913] 0
x[914] 1
x[915] 0
x[916] 1
x[917] 1
x[918] 1
x[919] 1
x[920] 0
x[921] 1
x[922] 1
x[923] 0
x[924] 0
x[925] 0
x[926] 1
x[927] 0
x[928] 0
x[929] 0
x[930] 1
x[931] 0
x[932] 0
x[933] 0
x[934] 1
x[935] 1
x[936] 1
x[937] 0
x[938] 1
x[939] 1
x[940] 1
x[941] 1
x[942] 1
x[943] 1
x[944] 0
x[945] 1
x[946] 1
x[947] 0
x[948] 1
x[949] 1
x[950] 0
x[951] 1
x[952] 1
x[953] 1
x[954] 1
x[955] 0
x[956] 0
x[957] 0
x[958] 1
x[959] 0
x[960] 1
x[961] 0
x[962] 1
x[963] 0
x[964] 0
x[965] 0
x[966] 1
x[967] 1
x[968] 0
x[969] 1
x[970] 0
x[971] 1
x[972] 0
x[973] 0
x[974] 1
x[975] 1
x[976] 1
x[977] 0
x[978] 0
x[979] 1
x[980] 1
x[981] 1
x[982] 1
x[983] 1
x[984] 0
x[985] 0
x[986] 1
x[987] 0
x[988] 1
x[989] 0
x[990] 1
x[991] 0
x[992] 1
x[993] 1
x[994] 1
x[995] 1
x[996] 1
x[997] 1
x[998] 1
x[999] 1
